(set-option :model_validate true)
(declare-const x Bool)
(declare-const v (_ BitVec 63))
(declare-fun r () (_ FloatingPoint 2 6))
(declare-fun a () (_ FloatingPoint 2 6))
(declare-fun ar () Float32)
(declare-fun r1 () (_ FloatingPoint 2 6))
(define-fun r6 () (_ BitVec 64) (_ bv0 64))
(push)
(assert x)
(assert (and
  (= a (fp.div RTZ r r1))
  (fp.leq (fp (_ bv1 1) (_ bv255 8) (_ bv0 23)) ar)
  (fp.geq ((_ to_fp 11 53) ((_ zero_extend 1) v)) (fp (_ bv0 1) (_ bv0 11) (_ bv0 52)))))
(check-sat)
